Route #1: 1 48 36 61 5 32 57 34 16 40 1
Route #2: 1 64 20 26 24 56 41 39 1
Route #3: 1 51 54 4 12 30 68 37 33 7 43 2 1
Route #4: 1 65 28 67 44 66 47 63 15 1
Route #5: 1 14 8 6 55 35 45 49 1
Route #6: 1 3 23 50 58 27 1
Route #7: 1 31 46 13 60 17 22 10 18 21 1
Route #8: 1 25 19 29 11 59 9 42 53 1
Route #9: 1 52 62 38 1
cost 1510
